(set-info :source |printed by MathSAT|)
(declare-fun exclusive_me () Int)
(declare-fun call_mesi.garde_me3 () Bool)
(declare-fun call_mesi.ite31 () Int)
(declare-fun call_mesi.ite16 () Int)
(declare-fun call_mesi.ite11 () Int)
(declare-fun param_etat_me4 () Bool)
(declare-fun call_mesi.ite28 () Int)
(declare-fun call_Abs.Abs () Int)
(declare-fun call_Abs2.Abs () Int)
(declare-fun call_mesi.ite10 () Int)
(declare-fun call_Abs4.Abs () Int)
(declare-fun call_mesi.flby4 () Int)
(declare-fun call_mesi.ite18 () Int)
(declare-fun call_mesi.ite7 () Int)
(declare-fun call_Sofar.flby () Bool)
(declare-fun call_mesi.ite8 () Int)
(declare-fun call_mesi.ite19 () Int)
(declare-fun call_mesi.exclusive_me () Int)
(declare-fun call_mesi.flby3 () Int)
(declare-fun call_mesi.flby2 () Int)
(declare-fun call_mesi.ite32 () Int)
(declare-fun call_mesi.flby () Int)
(declare-fun call_mesi.shared_me () Int)
(declare-fun call_Abs4.ite () Int)
(declare-fun call_Abs3.Abs () Int)
(declare-fun _OK_ () Bool)
(declare-fun call_mesi.ite23 () Int)
(declare-fun param_etat_me2 () Bool)
(declare-fun call_mesi.ite17 () Int)
(declare-fun call_mesi.modified_me () Int)
(declare-fun call_Sofar.Sofar () Bool)
(declare-fun call_excludes4.excludes () Bool)
(declare-fun call_mesi.garde_me1 () Bool)
(declare-fun call_mesi.ite6 () Int)
(declare-fun call_mesi.ite27 () Int)
(declare-fun call_Abs.ite () Int)
(declare-fun call_mesi.ite22 () Int)
(declare-fun call_mesi.ite29 () Int)
(declare-fun call_mesi.ite5 () Int)
(declare-fun call_mesi.ite9 () Int)
(declare-fun call_mesi.ite15 () Int)
(declare-fun call_mesi.ite21 () Int)
(declare-fun call_mesi.garde_me4 () Bool)
(declare-fun call_mesi.ite14 () Int)
(declare-fun call_mesi.ite3 () Int)
(declare-fun invalid_me () Int)
(declare-fun call_mesi.invalid_me () Int)
(declare-fun call_mesi.ite () Int)
(declare-fun env () Bool)
(declare-fun call_mesi.ite25 () Int)
(declare-fun shared_me () Int)
(declare-fun call_Abs2.ite () Int)
(declare-fun call_mesi.ite12 () Int)
(declare-fun param_etat_me3 () Bool)
(declare-fun call_Abs3.ite () Int)
(declare-fun call_mesi.ite30 () Int)
(declare-fun call_mesi.ite13 () Int)
(declare-fun call_mesi.ite24 () Int)
(declare-fun call_mesi.ite20 () Int)
(declare-fun param_etat_me1 () Bool)
(declare-fun call_mesi.ite2 () Int)
(declare-fun call_mesi.ite26 () Int)
(declare-fun modified_me () Int)
(declare-fun call_mesi.ite4 () Int)
(define-fun .def_974 () Bool (= call_excludes4.excludes call_Sofar.flby))
(define-fun .def_972 () Bool (= call_mesi.flby4 3))
(define-fun .def_970 () Bool (= call_mesi.flby3 0))
(define-fun .def_968 () Bool (= call_mesi.flby2 0))
(define-fun .def_966 () Bool (= call_mesi.flby 0))
(define-fun .def_962 () Bool (= call_mesi.ite20 0))
(define-fun .def_957 () Bool (not call_mesi.garde_me4))
(define-fun .def_963 () Bool (or .def_957 .def_962))
(define-fun .def_959 () Bool (= call_mesi.ite4 0))
(define-fun .def_960 () Bool (or .def_957 .def_959))
(define-fun .def_955 () Bool (= call_mesi.ite12 1))
(define-fun .def_958 () Bool (or .def_955 .def_957))
(define-fun .def_961 () Bool (and .def_958 .def_960))
(define-fun .def_964 () Bool (and .def_961 .def_963))
(define-fun .def_951 () Bool (= call_mesi.ite19 0))
(define-fun .def_946 () Bool (not call_mesi.garde_me3))
(define-fun .def_952 () Bool (or .def_946 .def_951))
(define-fun .def_948 () Bool (= call_mesi.ite3 0))
(define-fun .def_949 () Bool (or .def_946 .def_948))
(define-fun .def_944 () Bool (= call_mesi.ite11 1))
(define-fun .def_947 () Bool (or .def_944 .def_946))
(define-fun .def_950 () Bool (and .def_947 .def_949))
(define-fun .def_953 () Bool (and .def_950 .def_952))
(define-fun .def_940 () Bool (= call_mesi.ite 0))
(define-fun .def_938 () Bool (not call_mesi.garde_me1))
(define-fun .def_941 () Bool (or .def_938 .def_940))
(define-fun .def_936 () Bool (= call_mesi.ite9 0))
(define-fun .def_939 () Bool (or .def_936 .def_938))
(define-fun .def_942 () Bool (and .def_939 .def_941))
(define-fun .def_933 () Bool (= call_mesi.ite29 call_mesi.ite28))
(define-fun .def_922 () Bool (not param_etat_me4))
(define-fun .def_934 () Bool (or .def_922 .def_933))
(define-fun .def_929 () Bool (= call_mesi.ite21 call_mesi.ite20))
(define-fun .def_930 () Bool (or .def_922 .def_929))
(define-fun .def_925 () Bool (= call_mesi.ite5 call_mesi.ite4))
(define-fun .def_926 () Bool (or .def_922 .def_925))
(define-fun .def_921 () Bool (= call_mesi.ite13 call_mesi.ite12))
(define-fun .def_923 () Bool (or .def_921 .def_922))
(define-fun .def_927 () Bool (and .def_923 .def_926))
(define-fun .def_931 () Bool (and .def_927 .def_930))
(define-fun .def_935 () Bool (and .def_931 .def_934))
(define-fun .def_943 () Bool (and .def_935 .def_942))
(define-fun .def_954 () Bool (and .def_943 .def_953))
(define-fun .def_965 () Bool (and .def_954 .def_964))
(define-fun .def_967 () Bool (and .def_965 .def_966))
(define-fun .def_969 () Bool (and .def_967 .def_968))
(define-fun .def_971 () Bool (and .def_969 .def_970))
(define-fun .def_973 () Bool (and .def_971 .def_972))
(define-fun .def_975 () Bool (and .def_973 .def_974))
(define-fun .def_918 () Bool (= call_Abs4.Abs call_Abs4.ite))
(define-fun .def_916 () Bool (= call_Abs3.Abs call_Abs3.ite))
(define-fun .def_914 () Bool (= call_Abs2.Abs call_Abs2.ite))
(define-fun .def_912 () Bool (= call_Abs.Abs call_Abs.ite))
(define-fun .def_910 () Bool (= call_Sofar.Sofar call_Sofar.flby))
(define-fun .def_903 () Bool (and param_etat_me3 param_etat_me4))
(define-fun .def_901 () Bool (and param_etat_me2 param_etat_me4))
(define-fun .def_899 () Bool (and param_etat_me3 param_etat_me2))
(define-fun .def_896 () Bool (and param_etat_me2 param_etat_me1))
(define-fun .def_895 () Bool (and param_etat_me3 param_etat_me1))
(define-fun .def_897 () Bool (or .def_895 .def_896))
(define-fun .def_894 () Bool (and param_etat_me1 param_etat_me4))
(define-fun .def_898 () Bool (or .def_894 .def_897))
(define-fun .def_900 () Bool (or .def_898 .def_899))
(define-fun .def_902 () Bool (or .def_900 .def_901))
(define-fun .def_904 () Bool (or .def_902 .def_903))
(define-fun .def_905 () Bool (not .def_904))
(define-fun .def_907 () Bool (= .def_905 call_excludes4.excludes))
(define-fun .def_891 () Bool (= call_mesi.invalid_me call_mesi.flby4))
(define-fun .def_888 () Bool (= call_mesi.shared_me call_mesi.flby3))
(define-fun .def_885 () Bool (= call_mesi.exclusive_me call_mesi.flby2))
(define-fun .def_882 () Bool (= call_mesi.modified_me call_mesi.flby))
(define-fun .def_877 () Bool (= call_mesi.ite31 call_mesi.ite32))
(define-fun .def_878 () Bool (or param_etat_me1 .def_877))
(define-fun .def_874 () Bool (= call_mesi.ite25 call_mesi.ite32))
(define-fun .def_853 () Bool (not param_etat_me1))
(define-fun .def_875 () Bool (or .def_853 .def_874))
(define-fun .def_869 () Bool (= call_mesi.ite23 call_mesi.ite24))
(define-fun .def_870 () Bool (or param_etat_me1 .def_869))
(define-fun .def_866 () Bool (= call_mesi.ite17 call_mesi.ite24))
(define-fun .def_867 () Bool (or .def_853 .def_866))
(define-fun .def_861 () Bool (= call_mesi.ite15 call_mesi.ite16))
(define-fun .def_862 () Bool (or param_etat_me1 .def_861))
(define-fun .def_858 () Bool (= call_mesi.ite16 call_mesi.ite9))
(define-fun .def_859 () Bool (or .def_853 .def_858))
(define-fun .def_852 () Bool (= call_mesi.ite8 call_mesi.ite))
(define-fun .def_854 () Bool (or .def_852 .def_853))
(define-fun .def_848 () Bool (= call_mesi.ite7 call_mesi.ite8))
(define-fun .def_850 () Bool (or .def_848 param_etat_me1))
(define-fun .def_855 () Bool (and .def_850 .def_854))
(define-fun .def_860 () Bool (and .def_855 .def_859))
(define-fun .def_863 () Bool (and .def_860 .def_862))
(define-fun .def_868 () Bool (and .def_863 .def_867))
(define-fun .def_871 () Bool (and .def_868 .def_870))
(define-fun .def_876 () Bool (and .def_871 .def_875))
(define-fun .def_879 () Bool (and .def_876 .def_878))
(define-fun .def_845 () Bool (= env call_Sofar.Sofar))
(define-fun .def_841 () Bool (= invalid_me call_mesi.invalid_me))
(define-fun .def_836 () Int (+ invalid_me call_Abs4.ite))
(define-fun .def_837 () Bool (= .def_836 0))
(define-fun .def_833 () Bool (<= 0 invalid_me))
(define-fun .def_838 () Bool (or .def_833 .def_837))
(define-fun .def_834 () Bool (not .def_833))
(define-fun .def_832 () Bool (= invalid_me call_Abs4.ite))
(define-fun .def_835 () Bool (or .def_832 .def_834))
(define-fun .def_839 () Bool (and .def_835 .def_838))
(define-fun .def_842 () Bool (and .def_839 .def_841))
(define-fun .def_827 () Bool (= shared_me call_mesi.shared_me))
(define-fun .def_822 () Int (+ shared_me call_Abs3.ite))
(define-fun .def_823 () Bool (= .def_822 0))
(define-fun .def_819 () Bool (<= 0 shared_me))
(define-fun .def_824 () Bool (or .def_819 .def_823))
(define-fun .def_820 () Bool (not .def_819))
(define-fun .def_818 () Bool (= shared_me call_Abs3.ite))
(define-fun .def_821 () Bool (or .def_818 .def_820))
(define-fun .def_825 () Bool (and .def_821 .def_824))
(define-fun .def_828 () Bool (and .def_825 .def_827))
(define-fun .def_813 () Bool (= exclusive_me call_mesi.exclusive_me))
(define-fun .def_808 () Int (+ exclusive_me call_Abs2.ite))
(define-fun .def_809 () Bool (= .def_808 0))
(define-fun .def_805 () Bool (<= 0 exclusive_me))
(define-fun .def_810 () Bool (or .def_805 .def_809))
(define-fun .def_806 () Bool (not .def_805))
(define-fun .def_804 () Bool (= exclusive_me call_Abs2.ite))
(define-fun .def_807 () Bool (or .def_804 .def_806))
(define-fun .def_811 () Bool (and .def_807 .def_810))
(define-fun .def_814 () Bool (and .def_811 .def_813))
(define-fun .def_799 () Bool (= modified_me call_mesi.modified_me))
(define-fun .def_794 () Int (+ modified_me call_Abs.ite))
(define-fun .def_795 () Bool (= .def_794 0))
(define-fun .def_791 () Bool (<= 0 modified_me))
(define-fun .def_796 () Bool (or .def_791 .def_795))
(define-fun .def_792 () Bool (not .def_791))
(define-fun .def_790 () Bool (= modified_me call_Abs.ite))
(define-fun .def_793 () Bool (or .def_790 .def_792))
(define-fun .def_797 () Bool (and .def_793 .def_796))
(define-fun .def_800 () Bool (and .def_797 .def_799))
(define-fun .def_781 () Int (+ call_Abs3.Abs call_Abs4.Abs))
(define-fun .def_782 () Int (+ call_Abs2.Abs .def_781))
(define-fun .def_783 () Int (+ call_Abs.Abs .def_782))
(define-fun .def_784 () Bool (<= .def_783 3))
(define-fun .def_773 () Bool (not env))
(define-fun .def_785 () Bool (or .def_773 .def_784))
(define-fun .def_786 () Bool (= _OK_ .def_785))
(define-fun .def_767 () Bool (= call_mesi.ite30 call_mesi.ite31))
(define-fun .def_768 () Bool (or param_etat_me2 .def_767))
(define-fun .def_764 () Bool (= call_mesi.ite26 call_mesi.ite31))
(define-fun .def_743 () Bool (not param_etat_me2))
(define-fun .def_765 () Bool (or .def_743 .def_764))
(define-fun .def_759 () Bool (= call_mesi.ite22 call_mesi.ite23))
(define-fun .def_760 () Bool (or param_etat_me2 .def_759))
(define-fun .def_756 () Bool (= call_mesi.ite18 call_mesi.ite23))
(define-fun .def_757 () Bool (or .def_743 .def_756))
(define-fun .def_751 () Bool (= call_mesi.ite14 call_mesi.ite15))
(define-fun .def_752 () Bool (or param_etat_me2 .def_751))
(define-fun .def_748 () Bool (= call_mesi.ite10 call_mesi.ite15))
(define-fun .def_749 () Bool (or .def_743 .def_748))
(define-fun .def_742 () Bool (= call_mesi.ite7 call_mesi.ite2))
(define-fun .def_744 () Bool (or .def_742 .def_743))
(define-fun .def_738 () Bool (= call_mesi.ite6 call_mesi.ite7))
(define-fun .def_740 () Bool (or .def_738 param_etat_me2))
(define-fun .def_745 () Bool (and .def_740 .def_744))
(define-fun .def_750 () Bool (and .def_745 .def_749))
(define-fun .def_753 () Bool (and .def_750 .def_752))
(define-fun .def_758 () Bool (and .def_753 .def_757))
(define-fun .def_761 () Bool (and .def_758 .def_760))
(define-fun .def_766 () Bool (and .def_761 .def_765))
(define-fun .def_769 () Bool (and .def_766 .def_768))
(define-fun .def_734 () Bool (= call_mesi.ite30 call_mesi.ite29))
(define-fun .def_735 () Bool (or param_etat_me3 .def_734))
(define-fun .def_730 () Bool (= call_mesi.ite27 call_mesi.ite30))
(define-fun .def_707 () Bool (not param_etat_me3))
(define-fun .def_731 () Bool (or .def_707 .def_730))
(define-fun .def_725 () Bool (= call_mesi.ite22 call_mesi.ite21))
(define-fun .def_726 () Bool (or param_etat_me3 .def_725))
(define-fun .def_721 () Bool (= call_mesi.ite22 call_mesi.ite19))
(define-fun .def_722 () Bool (or .def_707 .def_721))
(define-fun .def_716 () Bool (= call_mesi.ite14 call_mesi.ite13))
(define-fun .def_717 () Bool (or param_etat_me3 .def_716))
(define-fun .def_712 () Bool (= call_mesi.ite14 call_mesi.ite11))
(define-fun .def_713 () Bool (or .def_707 .def_712))
(define-fun .def_706 () Bool (= call_mesi.ite6 call_mesi.ite3))
(define-fun .def_708 () Bool (or .def_706 .def_707))
(define-fun .def_702 () Bool (= call_mesi.ite6 call_mesi.ite5))
(define-fun .def_704 () Bool (or .def_702 param_etat_me3))
(define-fun .def_709 () Bool (and .def_704 .def_708))
(define-fun .def_714 () Bool (and .def_709 .def_713))
(define-fun .def_718 () Bool (and .def_714 .def_717))
(define-fun .def_723 () Bool (and .def_718 .def_722))
(define-fun .def_727 () Bool (and .def_723 .def_726))
(define-fun .def_732 () Bool (and .def_727 .def_731))
(define-fun .def_736 () Bool (and .def_732 .def_735))
(define-fun .def_770 () Bool (and .def_736 .def_769))
(define-fun .def_787 () Bool (and .def_770 .def_786))
(define-fun .def_801 () Bool (and .def_787 .def_800))
(define-fun .def_815 () Bool (and .def_801 .def_814))
(define-fun .def_829 () Bool (and .def_815 .def_828))
(define-fun .def_843 () Bool (and .def_829 .def_842))
(define-fun .def_846 () Bool (and .def_843 .def_845))
(define-fun .def_880 () Bool (and .def_846 .def_879))
(define-fun .def_883 () Bool (and .def_880 .def_882))
(define-fun .def_886 () Bool (and .def_883 .def_885))
(define-fun .def_889 () Bool (and .def_886 .def_888))
(define-fun .def_892 () Bool (and .def_889 .def_891))
(define-fun .def_908 () Bool (and .def_892 .def_907))
(define-fun .def_911 () Bool (and .def_908 .def_910))
(define-fun .def_913 () Bool (and .def_911 .def_912))
(define-fun .def_915 () Bool (and .def_913 .def_914))
(define-fun .def_917 () Bool (and .def_915 .def_916))
(define-fun .def_919 () Bool (and .def_917 .def_918))
(define-fun .def_976 () Bool (and .def_919 .def_975))
(assert .def_976)
